NAME: instance_3237
TYPE: TSP
DIMENSION: 20
EDGE_WEIGHT_TYPE: EUC_2D
NODE_COORD_SECTION
0 92.97 77.49
1 79.36 53.49
2 80.65 19.49
3 17.86 86.93
4 1.19 98.99
5 62.56 22.86
6 7.23 7.17
7 17.42 40.82
8 78.42 15.69
9 80.98 41.21
10 5.55 83.92
11 89.79 11.89
12 14.17 0.40
13 75.55 80.87
14 82.26 63.77
15 90.88 94.53
16 60.97 45.46
17 77.33 7.53
18 85.61 24.64
19 82.02 10.15
EOF
